(set-option :produce-models true)
(set-logic QF_UF)
(declare-fun p49() Bool)
(declare-fun p8() Bool)
(declare-fun p25() Bool)
(declare-fun p24() Bool)
(declare-fun p48() Bool)
(declare-fun p40() Bool)
(declare-fun p1() Bool)
(declare-fun p23() Bool)
(declare-fun p6() Bool)
(declare-fun p13() Bool)
(declare-fun p34() Bool)
(declare-fun p0() Bool)
(declare-fun p10() Bool)
(declare-fun p45() Bool)
(declare-fun p3() Bool)
(declare-fun p47() Bool)
(declare-fun p20() Bool)
(declare-fun p21() Bool)
(declare-fun p19() Bool)
(declare-fun p31() Bool)
(declare-fun p29() Bool)
(declare-fun p11() Bool)
(declare-fun p30() Bool)
(declare-fun p26() Bool)
(declare-fun p44() Bool)
(declare-fun p2() Bool)
(declare-fun p12() Bool)
(declare-fun p46() Bool)
(declare-fun p27() Bool)
(declare-fun p4() Bool)
(declare-fun p33() Bool)
(declare-fun p42() Bool)
(declare-fun p32() Bool)
(declare-fun p22() Bool)
(declare-fun p18() Bool)
(declare-fun p7() Bool)
(declare-fun p9() Bool)
(declare-fun p37() Bool)
(declare-fun p43() Bool)
(declare-fun p39() Bool)
(declare-fun p38() Bool)
(declare-fun p15() Bool)
(declare-fun p35() Bool)
(declare-fun p36() Bool)
(declare-fun p41() Bool)
(declare-fun p5() Bool)
(declare-fun p28() Bool)
(declare-fun p14() Bool)
(declare-fun p17() Bool)
(declare-fun p16() Bool)
(assert
(and (or p49 (not p8) p25) (or (not p24) (not p48) (not p40)) (or p1 (not p23) (not p6)) (or p13 p23 (not p34)) (or (not p8) p0 p10) (or p40 (not p45) p3) (or p47 p3 p10) (or (not p8) p1 p20) (or (not p25) (not p34) (not p21)) (or p0 (not p19) (not p6)) (or p0 p31 p29) (or (not p11) p31 (not p30)) (or (not p11) p26 (not p8)) (or (not p44) p2 (not p1)) (or p45 (not p12) p46) (or p40 (not p25) p27) (or p45 p4 p4) (or (not p33) p42 (not p29)) (or p45 (not p4) (not p23)) (or p32 (not p42) p22) (or p12 (not p25) (not p18)) (or p7 p21 p49) (or (not p9) p37 (not p29)) (or (not p6) (not p43) p34) (or (not p21) (not p48) p11) (or p9 (not p25) (not p39)) (or (not p47) (not p19) p7) (or (not p38) (not p4) p34) (or p1 p8 p10) (or p15 p42 (not p35)) (or (not p12) p3 p47) (or p42 (not p18) p30) (or p36 p13 p41) (or (not p8) (not p6) (not p2)) (or p1 (not p41) (not p48)) (or (not p6) p0 (not p47)) (or (not p39) (not p7) (not p5)) (or (not p37) (not p5) p44) (or p43 (not p41) p42) (or p43 p31 (not p45)) (or p11 (not p23) p9) (or (not p4) (not p19) (not p46)) (or p32 p30 p5) (or p11 (not p28) p26) (or p3 p7 (not p47)) (or p14 (not p42) (not p18)) (or p29 (not p1) p17) (or (not p9) (not p37) (not p11)) (or (not p20) (not p12) p40) (or (not p26) (not p22) (not p45)) (or p7 p24 (not p31)) (or p32 p12 p47) (or (not p5) (not p24) p5) (or (not p37) p6 (not p24)) (or (not p4) (not p20) (not p31)) (or (not p26) (not p1) (not p41)) (or (not p24) (not p7) (not p4)) (or (not p39) (not p38) p34) (or (not p7) (not p27) (not p49)) (or p27 p7 (not p33)) (or p24 p40 p13) (or (not p43) p36 p43) (or p11 p5 p7) (or (not p42) p16 (not p19)) (or (not p15) p20 p36) (or p44 (not p33) (not p47)) (or p34 (not p45) (not p37)) (or (not p32) (not p27) p35) (or p5 (not p44) (not p47)) (or (not p16) p2 p39) (or p36 (not p26) p32) (or (not p10) p3 p21) (or p7 (not p19) p14) (or (not p14) p11 (not p24)) (or p42 (not p45) p31) (or (not p44) (not p1) p10) (or p3 p37 (not p13)) (or (not p14) p14 (not p43)) (or p15 (not p7) (not p1)) (or (not p42) (not p2) p42) (or (not p34) p16 (not p48)) (or (not p17) (not p49) (not p42)) (or p41 (not p36) p33) (or (not p7) p44 (not p41)) (or (not p44) p28 (not p26)) (or (not p40) p23 (not p36)) (or p9 p8 (not p9)) (or (not p31) p3 (not p44)) (or (not p22) p33 (not p7)) (or p35 (not p5) p31) (or (not p7) p19 (not p2)) (or p24 p16 (not p43)) (or p11 (not p18) p28) (or p37 p46 p0) (or p45 (not p9) (not p17)) (or (not p14) (not p9) (not p31)) (or (not p1) (not p18) p16) (or (not p45) p37 (not p3)) (or (not p32) (not p21) (not p48)) (or p47 (not p7) (not p19)) (or p32 (not p14) p9) (or (not p45) p47 p0) (or (not p15) p17 (not p0)) (or p24 (not p35) (not p38)) (or (not p48) p10 p17) (or (not p9) p35 (not p39)) (or (not p8) (not p27) p32) (or p40 (not p36) (not p12)) (or (not p12) (not p29) (not p3)) (or p6 (not p15) p25) (or (not p10) (not p40) (not p7)) (or p4 p47 (not p26)) (or p13 p31 (not p4)) (or p6 (not p25) p6) (or (not p19) p41 p22) (or p13 (not p6) p27) (or p33 p25 (not p41)) (or (not p2) p6 (not p48)) (or (not p39) (not p32) p34) (or p34 (not p21) p9) (or (not p14) p21 p13) (or (not p44) p18 p36) (or p4 p7 p48) (or (not p19) (not p43) (not p17)) (or p31 p37 (not p16)) (or (not p36) (not p22) p36) (or p32 p9 p21) (or (not p32) (not p24) p36) (or p11 (not p49) p43) (or (not p14) (not p38) p42) (or (not p23) p33 p30) (or p37 (not p18) p11) (or (not p9) p49 (not p38)) (or (not p19) p10 (not p24)) (or p16 (not p36) p39) (or p34 p10 p36) (or (not p22) p42 p44) (or p39 p42 (not p9)) (or p41 (not p49) p35) (or p42 p29 p11) (or p46 p7 p39) (or p37 p43 p47) (or p45 p17 p43) (or (not p19) p28 p11) (or (not p6) p11 (not p41)) (or (not p46) (not p49) p27) (or (not p1) (not p3) (not p26)) (or (not p12) p23 (not p36)) (or p12 p41 (not p19)) (or (not p24) p16 (not p38)) (or (not p39) p10 p46) (or (not p26) (not p45) (not p26)) (or (not p11) (not p6) (not p25)) (or (not p47) (not p19) p19) (or (not p37) (not p49) p46) (or (not p24) p4 p38) (or (not p1) (not p19) p44) (or (not p32) (not p22) (not p34)) (or (not p13) (not p24) p48) (or (not p28) (not p44) p8) (or p21 (not p40) (not p49)) (or p18 p21 (not p8)) (or p39 p25 (not p28)) (or p34 (not p17) p24) (or (not p17) (not p46) (not p48)) (or (not p34) p35 (not p32)) (or p32 p27 p9) (or p46 (not p18) (not p0)) (or p43 p48 p33) (or (not p49) (not p4) p24) (or p44 (not p33) p31) (or (not p39) (not p13) p41) (or p7 (not p44) p15) (or (not p35) (not p8) p42) (or (not p20) (not p31) (not p48)) (or (not p17) (not p25) p31) (or (not p0) p23 p29) (or (not p11) (not p26) (not p34)) (or (not p7) (not p17) p40) (or (not p41) (not p44) p15) (or (not p8) (not p24) (not p11)) (or p14 (not p2) p11) (or p24 p26 p0) (or (not p6) p13 (not p28)) (or p45 p3 (not p20)) (or (not p3) (not p27) p44) (or p20 p46 (not p46)) (or p14 (not p17) p25) (or p16 (not p39) (not p26)) (or (not p29) (not p22) p43) (or p12 p39 (not p14)) (or p4 p44 (not p26)) (or p48 p38 p36) (or (not p16) (not p33) (not p23)) (or p20 (not p25) p23) (or (not p31) (not p9) (not p1)) (or p42 (not p43) p26) (or (not p14) p38 (not p18)) (or (not p49) p9 (not p43)) (or (not p13) p3 p44) (or p10 p32 (not p27)) (or (not p10) (not p3) p44) (or (not p13) (not p25) p33) (or (not p21) p36 (not p42)) (or (not p14) (not p1) p4) (or p8 (not p24) p20) (or p23 (not p8) p22) (or (not p31) p4 p13) (or p35 (not p9) p30) (or p4 (not p16) (not p25)))
)
(check-sat)
(get-model)
